/*********************************************
 * OPL 12.7.0.0 Data
 * Author: wolodija
 * Creation Date: 10 sty 2017 at 11:00:14
 *********************************************/
m = 10;
p = 3;
n = 4;

S_set = [{1}, {1}, {1}];
S = [1, 5, 6];

D_set = [{6}, {6}, {8}];
D = [6, 6, 8];

costs = [
	[0,  7,  3,  0,  0,  0,  0,  0,  0,  0],
	[7,  0,  0, 18,  9,  0,  0,  0,  0,  0],
	[3,  0,  0, 12, 13,  0,  0,  0,  0,  0],
	[0, 18, 12,  0,  0,  5, 12,  0,  0,  0],
	[0,  9, 13,  0,  0,  0, 12,  8,  0,  0],
	[0,  0,  0,  5,  0,  0,  0,  0,  9,  0],
	[0,  0,  0, 12, 12,  0,  0,  0,  2,  2],
	[0,  0,  0,  0,  8,  0,  0,  0,  0,  9],
	[0,  0,  0,  0,  0,  9,  2,  0,  0,  0],
	[0,  0,  0,  0,  0,  0,  2,  9,  0,  0]
];

cost_of_purchasing = [[128, 149, 155, 206],
					  [310, 357, 244, 385],
					  [334, 218, 345, 276],
					  [231, 352, 158, 306],
					  [213, 344, 344, 386],
					  [196, 246, 157, 143],
					  [369, 109, 198, 116],
					  [210, 397, 283, 397],
					  [281, 197, 174, 278],
					  [360, 357, 217, 330]];

demands = [
	[3, 2, 3],
	[1, 1, 1],
	[1, 3, 2],
	[2, 1, 2],
];

// quantities of products
q = [[0, 0, 3, 2],
 [2, 1, 1, 1],
 [3, 1, 1, 0],
 [0, 2, 2, 1],
 [0, 1, 3, 1],
 [0, 1, 3, 3],
 [1, 2, 3, 1],
 [3, 1, 2, 2],
 [0, 1, 3, 1],
 [2, 3, 3, 2]];

// set of products which have to be purchased
K = [
	{1, 2},
	{1, 3, 4},
	{1, 2, 4},
];

//  order of purchasing a product
O = [
	[2, 1, 1],
	[1, 0, 3],
	[0, 3, 0],
	[0, 2, 2],
];